\ Model Waste_Collection_Routing_copy
\ LP format - for model browsing. Use MPS format to capture full model detail.
\ Signature: 0x44344f7c61745545
Minimize
 
Subject To
 VisitOnce_in[N3]: x[V1,N1,N3] + x[V1,N2,N3] + x[V1,N4,N3] + x[V2,N1,N3]
   + x[V2,N2,N3] + x[V2,N4,N3] + x[V3,N1,N3] + x[V3,N2,N3] + x[V3,N4,N3]
   = 1
 FlowCustomers[V1,N2]: x[V1,N1,N2] - x[V1,N2,N3] + x[V1,N3,N2]
   - x[V1,N2,N4] - x[V1,N2,N1] + x[V1,N4,N2] = 0
 FlowCustomers[V1,N3]: x[V1,N1,N3] + x[V1,N2,N3] - x[V1,N3,N2]
   - x[V1,N3,N4] - x[V1,N3,N1] + x[V1,N4,N3] = 0
 FlowCustomers[V2,N2]: x[V2,N1,N2] - x[V2,N2,N3] + x[V2,N3,N2]
   - x[V2,N2,N4] - x[V2,N2,N1] + x[V2,N4,N2] = 0
 FlowCustomers[V3,N2]: x[V3,N1,N2] - x[V3,N2,N3] + x[V3,N3,N2]
   - x[V3,N2,N4] - x[V3,N2,N1] + x[V3,N4,N2] = 0
 StartDepot[V2]: x[V2,N1,N2] + x[V2,N1,N3] - y[V2] = 0
 StartDepot[V3]: x[V3,N1,N2] + x[V3,N1,N3] - y[V3] = 0
 EndAtFacility[V1]: x[V1,N2,N4] + x[V1,N3,N4] - y[V1] = 0
 FacilityToDepot[V1]: x[V1,N4,N1] - y[V1] = 0
 FacilityToDepot[V2]: x[V2,N4,N1] - y[V2] = 0
 FacilityToDepot[V3]: x[V3,N4,N1] - y[V3] = 0
 NoFacilityExitExceptDepot[V2]: x[V2,N4,N2] + x[V2,N4,N3] = 0
 NoFacilityExitExceptDepot[V3]: x[V3,N4,N2] + x[V3,N4,N3] = 0
 NoDepotInExceptFromFacility[V1]: x[V1,N2,N1] + x[V1,N3,N1] = 0
 TimeAtDepotZero[V1]: T[V1,N1] = 0
 TimeAtDepotZero[V2]: T[V2,N1] = 0
 TimeAtDepotZero[V3]: T[V3,N1] = 0
 TimeProp_V1_N2_N3: - 1e+06 x[V1,N2,N3] - T[V1,N2] + T[V1,N3] >= -999990
 TimeProp_V1_N3_N2: - 1e+06 x[V1,N3,N2] + T[V1,N2] - T[V1,N3] >= -999988
 TimeProp_V1_N4_N1: - 1e+06 x[V1,N4,N1] + T[V1,N1] - T[V1,N4] >= -999980
 TimeProp_V2_N2_N3: - 1e+06 x[V2,N2,N3] - T[V2,N2] + T[V2,N3] >= -999990
 TimeProp_V2_N3_N2: - 1e+06 x[V2,N3,N2] + T[V2,N2] - T[V2,N3] >= -999988
 TimeProp_V2_N4_N1: - 1e+06 x[V2,N4,N1] + T[V2,N1] - T[V2,N4] >= -999980
 TimeProp_V3_N2_N3: - 1e+06 x[V3,N2,N3] - T[V3,N2] + T[V3,N3] >= -999990
 TimeProp_V3_N3_N2: - 1e+06 x[V3,N3,N2] + T[V3,N2] - T[V3,N3] >= -999988
 TimeProp_V3_N4_N1: - 1e+06 x[V3,N4,N1] + T[V3,N1] - T[V3,N4] >= -999980
Bounds
 T[V1,N1] free
 T[V1,N2] free
 T[V1,N3] free
 T[V2,N1] free
 T[V2,N2] free
 T[V2,N3] free
 T[V3,N1] free
 T[V3,N2] free
 T[V3,N3] free
Binaries
 x[V1,N1,N2] x[V1,N1,N3] x[V1,N2,N3] x[V1,N3,N2] x[V1,N2,N4] x[V1,N3,N4]
 x[V1,N4,N1] x[V1,N2,N1] x[V1,N3,N1] x[V1,N4,N2] x[V1,N4,N3] x[V2,N1,N2]
 x[V2,N1,N3] x[V2,N2,N3] x[V2,N3,N2] x[V2,N2,N4] x[V2,N4,N1] x[V2,N2,N1]
 x[V2,N4,N2] x[V2,N4,N3] x[V3,N1,N2] x[V3,N1,N3] x[V3,N2,N3] x[V3,N3,N2]
 x[V3,N2,N4] x[V3,N4,N1] x[V3,N2,N1] x[V3,N4,N2] x[V3,N4,N3] y[V1] y[V2]
 y[V3]
End
